122     4       
20      17      15      14      
0       0       0       0       0       3       2       3       4       
10      10      0       0       0       3       13      19      56      
9       10      0       0       0       3       5       6       17      
2       0       0       0       6       2       7       49      
2       0       0       0       10      3       8       10      11      
6       0       7       0       0       2       31      54      
5       0       0       2       0       3       9       20      22      
9       0       0       0       5       2       12      21      
10      0       0       8       0       3       23      26      120     
5       0       0       2       0       1       37      
3       0       0       9       0       1       15      
1       0       3       0       0       3       51      61      82      
6       0       0       2       0       3       14      64      78      
2       0       3       0       0       3       16      42      63      
9       6       0       0       0       3       29      81      89      
7       9       0       0       0       3       36      37      65      
7       0       0       0       4       3       18      35      50      
8       8       0       0       0       1       41      
6       0       6       0       0       2       52      109     
5       0       0       0       10      3       24      25      27      
1       0       0       0       3       3       33      40      76      
9       0       0       4       0       1       113     
1       0       0       0       10      1       48      
1       8       0       0       0       2       30      41      
7       0       3       0       0       3       28      70      116     
10      0       5       0       0       1       53      
2       0       8       0       0       3       34      48      62      
3       0       8       0       0       2       47      72      
4       7       0       0       0       1       39      
4       0       0       0       2       1       32      
8       0       0       0       8       1       44      
4       7       0       0       0       2       45      55      
4       0       2       0       0       1       43      
8       2       0       0       0       1       76      
7       2       0       0       0       1       90      
5       0       0       0       3       2       57      77      
10      0       0       1       0       1       38      
5       9       0       0       0       1       53      
10      3       0       0       0       1       107     
10      0       1       0       0       1       103     
1       0       0       10      0       2       44      115     
3       2       0       0       0       1       91      
9       0       10      0       0       3       46      97      105     
1       0       0       0       1       1       47      
8       3       0       0       0       3       58      68      83      
3       0       0       5       0       3       59      67      71      
4       0       8       0       0       1       58      
9       4       0       0       0       2       66      96      
4       0       10      0       0       1       66      
9       0       6       0       0       1       79      
1       0       0       0       7       2       60      69      
1       10      0       0       0       1       119     
4       5       0       0       0       2       82      84      
2       0       0       2       0       2       87      99      
3       0       9       0       0       3       70      88      101     
2       3       0       0       0       2       64      117     
5       0       0       7       0       1       73      
1       0       0       0       3       1       104     
10      2       0       0       0       2       80      112     
6       0       0       0       8       2       90      108     
3       0       0       0       8       1       92      
8       0       0       6       0       1       103     
9       0       8       0       0       1       111     
3       3       0       0       0       1       118     
10      0       0       8       0       1       110     
9       0       0       0       10      1       104     
2       0       0       10      0       1       114     
1       4       0       0       0       3       75      94      104     
4       6       0       0       0       1       91      
3       0       0       9       0       1       100     
3       3       0       0       0       2       74      85      
7       4       0       0       0       1       106     
10      0       0       0       8       1       84      
9       0       0       0       7       1       86      
4       8       0       0       0       1       76      
7       0       0       1       0       1       86      
5       0       0       0       7       1       95      
2       0       0       5       0       1       102     
2       0       7       0       0       1       82      
6       0       0       0       4       2       93      98      
6       9       0       0       0       1       108     
7       0       0       1       0       1       99      
8       0       0       0       10      1       91      
4       7       0       0       0       1       107     
8       0       9       0       0       1       108     
10      0       8       0       0       1       113     
9       8       0       0       0       1       92      
9       0       7       0       0       1       103     
9       0       0       0       1       1       95      
6       0       0       10      0       1       102     
4       6       0       0       0       1       101     
7       0       1       0       0       1       110     
3       9       0       0       0       2       94      113     
4       0       2       0       0       1       111     
6       0       0       10      0       1       109     
6       0       2       0       0       1       107     
9       0       0       0       1       1       120     
5       0       0       0       4       1       116     
2       0       0       9       0       2       114     121     
8       0       0       6       0       1       109     
6       2       0       0       0       1       102     
9       1       0       0       0       1       114     
8       0       0       2       0       1       112     
1       0       0       8       0       1       106     
5       0       9       0       0       1       118     
8       7       0       0       0       1       111     
5       0       0       0       6       1       112     
7       10      0       0       0       1       117     
8       7       0       0       0       1       115     
7       9       0       0       0       1       118     
1       1       0       0       0       1       117     
8       0       0       5       0       1       119     
9       0       0       0       9       1       115     
3       0       0       0       8       1       116     
1       0       0       0       2       1       121     
8       0       0       10      0       1       119     
5       9       0       0       0       1       121     
10      0       4       0       0       1       120     
7       0       0       2       0       1       122     
7       8       0       0       0       1       122     
6       0       0       0       9       1       122     
0       0       0       0       0       0       